#SOLVERNAME# PAJ_Gurobi_MOSEK_msd_nodisagg_subponly_noinit
#SOLVER# Pajarito.PajaritoSolver(3, 3600.0, 1.0e-5, true, Gurobi.GurobiSolver(nothing, Any[(:OutputFlag, 1), (:Threads, 8), (:IntFeasTol, 1.0e-9), (:FeasibilityTol, 1.0e-8), (:MIPGap, 1.0e-5)]), Pajarito.UnsetSolver(), 0, false, true, Mosek.MosekSolver(Any[(:LOG, 0), (:NUM_THREADS, 8), (:MSK_DPAR_INTPNT_CO_TOL_REL_GAP, 1.0e-10), (:MSK_DPAR_INTPNT_CO_TOL_PFEAS, 1.0e-10), (:MSK_DPAR_INTPNT_CO_TOL_DFEAS, 1.0e-10), (:MSK_DPAR_INTPNT_CO_TOL_NEAR_REL, 1000.0)]), true, true, false, false, false, false, false, false, false, false, false, false, false, false, false, true, 10.0, false, true, false, false, false, 1.0e-12, 1.0e-8, false, "")
#INSTANCE# sssd-strong-15-4.cbf.gz
#TIMELIMIT# 3600.0

Problem dimensions:
       variables |     125
     constraints |     180
   nonzeros in A |     372

Cones summary:
Cone             | Count   | Min dim.  | Max dim. 
    Rotated S.O. |      12 |         3 |         3

Variable types:
      continuous |      53
         integer |      72

Transforming data...               0.00s

Creating conic subproblem...       0.01s

Building MIP model...              0.00s

Solving conic relaxation...        0.01s
 - Relaxation status    =        Optimal
 - Relaxation bound     =  236044.066989
Academic license - for non-commercial use only
Optimize a model with 157 rows, 124 columns and 396 nonzeros
Variable types: 52 continuous, 72 integer (0 binary)
Coefficient statistics:
  Matrix range     [3e-03, 8e+00]
  Objective range  [3e+01, 8e+04]
  Bounds range     [0e+00, 0e+00]
  RHS range        [1e+00, 1e+00]
Presolve removed 113 rows and 28 columns
Presolve time: 0.00s
Presolved: 44 rows, 96 columns, 228 nonzeros
Variable types: 24 continuous, 72 integer (72 binary)
Found heuristic solution: objective 237494.85564

Root relaxation: objective 2.360441e+05, 66 iterations, 0.00 seconds

    Nodes    |    Current Node    |     Objective Bounds      |     Work
 Expl Unexpl |  Obj  Depth IntInf | Incumbent    BestBd   Gap | It/Node Time

     0     0 236044.067    0    6 237494.856 236044.067  0.61%     -    0s
     0     0 236044.067    0    2 237494.856 236044.067  0.61%     -    0s
     0     0 236044.067    0    4 237494.856 236044.067  0.61%     -    0s
     0     2 236044.067    0    6 237494.856 236044.067  0.61%     -    0s

Cutting planes:
  Gomory: 4
  Cover: 3
  Flow cover: 11
  Lazy constraints: 13

Explored 427 nodes (3461 simplex iterations) in 0.71 seconds
Thread count was 8 (of 16 available processors)

Solution count 1: 237495 

Optimal solution found (tolerance 1.00e-05)
Best objective 2.374948556379e+05, best bound 2.374948556379e+05, gap 0.0000%

Starting MIP-solver-driven algorithm
Mosek problem is Mosek.MSK_PRO_STA_UNKNOWN, solution is Mosek.MSK_SOL_STA_UNKNOWN, response is Mosek.MSK_RES_OK

WARNING: Conic solver failure: returned status Unknown
WARNING: Pajarito failed to converge to the desired relative gap; try turning off the MIP solver's presolve functionality

MIP-solver-driven algorithm summary:
 - Status               =     Suboptimal
 - Best feasible        =  +3.308148e+05
 - Best bound           =  +2.374949e+05
 - Relative opt. gap    =      2.821e-01
 - Total time (s)       =       7.37e-01

Timers (s):
 - Setup                =   1.39e-02
 -- Transform data      =   1.56e-04
 -- Create conic data   =   1.34e-02
 -- Create MIP data     =   3.33e-04
 - Algorithm            =   7.23e-01
 -- Solve relaxation    =   6.43e-03
 -- Get relaxation cuts =   4.93e-05
 -- MIP solver driving  =   7.16e-01
 -- Solve subproblems   =   7.39e-02
 -- Get subproblem cuts =   8.30e-04
 -- Get separation cuts =   0.00e+00

Counters:
 - Lazy callbacks       =    14
 -- Integer repeats     =     1
 -- Conic subproblems   =    14
 --- Infeasible         =     0
 --- Optimal            =    13
 --- Suboptimal         =     0
 --- UserLimit          =     0
 --- ConicFailure       =     0
 --- Other status       =     1
 -- Feasible solutions  =    13
 --- From subproblems   =    13
 --- In lazy callback   =     0
 - Heuristic callbacks  =   226
 -- Solutions passed    =     1

Solution returned by conic solver

Distance to feasibility (negative indicates strict feasibility):
Cone             | Variable  | Constraint
          Linear |  0.00e+00 |  2.01e-10
    Rotated S.O. |        NA |  4.79e-10

Distance to integrality of integer/binary variables:
         integer |  0.00e+00

#STATUS# Suboptimal
#OBJVAL# 330814.83893755754
#OBJBOUND# 237494.85563794588
#NODECOUNT# 427
#TIMESOLVER# 0.7369611263275146
#TIMEALL# 0.7786149978637695
#SOLUTION# [0.0,0.0,-0.0,1.0,0.0,-0.0,0.0,1.0,0.0,-0.0,0.0,1.0,0.0,1.0,0.0,0.0,0.0,1.0,0.0,0.0,1.0,-0.0,0.0,0.0,0.0,-0.0,1.0,0.0,1.0,0.0,0.0,0.0,0.0,-0.0,0.0,1.0,-0.0,0.0,1.0,0.0,-0.0,0.0,1.0,0.0,-0.0,0.0,1.0,0.0,-0.0,1.0,0.0,0.0,1.0,0.0,0.0,0.0,1.0,0.0,0.0,0.0,0.0,0.0,1.0,0.0,0.0,1.0,0.0,0.0,1.0,0.0,0.0,1.0,1.1192642636813677,0.8204619856037162,1.1784582509255042,0.8379402913401109,0.0,0.0,0.5281381279702756,0.0,0.0,0.4506888870374232,0.0,0.0,0.5409597599329031,0.0,0.0,0.45591268479374986,0.0,0.5596321318406838,0.5596321318406838,0.29556306785554604,0.4102309928018581,0.4102309928018581,0.1848865492831465,0.5892291254627521,0.5892291254627521,0.3187492454963005,0.41897014567005547,0.41897014567005547,0.19101380327318054,1.1192642636813677,1.1192642636813677,2.1192642636813677,0.8204619856037162,0.8204619856037162,1.8204619856037163,1.1784582509255042,1.1784582509255042,2.1784582509255044,0.8379402913401109,0.8379402913401109,1.8379402913401108,1.1192642636359096,1.119264263788525,1.1192642636813677,0.8204619855867645,0.8204619855805955,0.8204619856037162,1.1784582508559989,1.1784582507242003,1.1784582509255042,0.8379402914428294,0.837940291464953,0.8379402913401109]
